(set-logic BV) (define-fun origCir ((n277 Bool) (n271 Bool) (n231 Bool) (n194 Bool)) Bool (and n277 (and n271 (and n231 n194)))) (synth-fun skel ((n277 Bool) (n271 Bool) (n231 Bool) (n194 Bool)) Bool) (declare-var n277 Bool) (declare-var n271 Bool) (declare-var n231 Bool) (declare-var n194 Bool) (constraint (= (origCir n277 n271 n231 n194) (skel n277 n271 n231 n194))) (check-synth)
